Example_III/other_models/2/model_2_Log_1_cores.log

Gurobi 9.0.2 (linux64) logging started Mon Sep 14 07:03:54 2020

Changed value of parameter LogFile to model_2_Log_1_cores.log
   Prev:   Default: 
Changed value of parameter Threads to 1
   Prev: 0  Min: 0  Max: 1024  Default: 0
Gurobi Optimizer version 9.0.2 build v9.0.2rc0 (linux64)
Optimize a model with 10839 rows, 38880 columns and 175177 nonzeros
Model fingerprint: 0x1a021a8f
Variable types: 0 continuous, 38880 integer (38880 binary)
Coefficient statistics:
  Matrix range     [1e+00, 6e+01]
  Objective range  [1e+00, 1e+00]
  Bounds range     [1e+00, 1e+00]
  RHS range        [1e+00, 3e+02]
Presolve removed 913 rows and 3837 columns
Presolve time: 0.42s
Presolved: 9926 rows, 35043 columns, 157286 nonzeros
Variable types: 0 continuous, 35043 integer (35043 binary)

Root relaxation: objective 1.000000e+00, 2433 iterations, 0.07 seconds

    Nodes    |    Current Node    |     Objective Bounds      |     Work
 Expl Unexpl |  Obj  Depth IntInf | Incumbent    BestBd   Gap | It/Node Time

     0     0    1.00000    0  490          -    1.00000      -     -    1s
     0     0    1.00000    0  601          -    1.00000      -     -    2s
     0     0    1.00000    0  596          -    1.00000      -     -    2s
     0     0    1.00000    0  246          -    1.00000      -     -    2s
     0     0    1.00000    0  237          -    1.00000      -     -    3s
     0     0    1.00000    0  155          -    1.00000      -     -    4s
     0     0    1.00000    0  177          -    1.00000      -     -    4s
     0     0    1.00000    0  195          -    1.00000      -     -    4s
     0     0    1.00000    0  233          -    1.00000      -     -    4s
     0     0    1.00000    0  198          -    1.00000      -     -    5s
     0     0    1.00000    0  251          -    1.00000      -     -    5s
     0     0    1.00000    0  198          -    1.00000      -     -    6s
     0     0    1.00000    0  196          -    1.00000      -     -    6s
     0     2    1.00000    0  184          -    1.00000      -     -    8s
    75    16    1.00000   20  219          -    1.00000      -   620   10s
   287    12    1.00000   10  191          -    1.00000      -   547   15s
   462    33    1.00000   84  355          -    1.00000      -   597   20s
   647    35    1.00000  107  349          -    1.00000      -   582   25s
   974   308    2.33516  255   77          -    1.00000      -   438   30s
  1023   355    1.00000  198  283          -    1.00000      -   422   35s
  1030   360    1.00000  133  189          -    1.00000      -   419   40s
  1038   365    1.00000   95  242          -    1.00000      -   416   46s
  1041   367    1.00000  146  157          -    1.00000      -   415   51s
  1049   374    1.82861  223   77          -    1.00000      -   297   55s
  1061   382    1.00000  148   62          -    1.00000      -   294   60s
  1068   388    1.00000   22   84          -    1.00000      -   526   65s
  1092   383    1.00000   33  136          -    1.00000      -   532   70s
  1127   372    1.00000   51   58          -    1.00000      -   596   75s
  1210   420    1.00000  109   55          -    1.00000      -   563   80s
  1460   587    1.08750  219   32          -    1.00000      -   478   85s
  1732   732    1.08333   80   57          -    1.00000      -   409   90s
  1853   813    2.02083  170  289          -    1.00000      -   387   95s
  2027   923    2.02083  231   74          -    1.00000      -   361  100s
  2217  1047    2.02087  298  144          -    1.00000      -   339  105s
  2547  1376    2.02790  439   20          -    1.00000      -   298  110s
H 2619  1442                       6.0000000    1.00000  83.3%   292  111s
H 2619  1369                       4.0000000    1.00000  75.0%   292  111s
H 2646   620                       3.0000000    1.00000  66.7%   289  112s
  2781   643    1.18750  214   69    3.00000    1.00000  66.7%   276  115s
  2916   688    1.00000   99   59    3.00000    1.00000  66.7%   265  121s
H 2943   157                       2.0000000    1.00000  50.0%   264  122s
  2947   153    1.00000  146  250    2.00000    1.00000  50.0%   263  126s
  2950   155    1.00000   32  184    2.00000    1.00000  50.0%   263  130s
  2954   158    1.00000   71  137    2.00000    1.00000  50.0%   263  135s
  2958   161    1.00000  117  164    2.00000    1.00000  50.0%   262  140s
  2961   163    1.00000   76  229    2.00000    1.00000  50.0%   262  145s
  2964   165    1.00000  141   92    2.00000    1.00000  50.0%   262  151s
  2966   166    1.00000  141  117    2.00000    1.00000  50.0%   262  155s
  2971   171    1.00000   35   90    2.00000    1.00000  50.0%   361  160s
  3014   178    1.00000   59  141    2.00000    1.00000  50.0%   358  165s
  3123   243    1.00000  113  141    2.00000    1.00000  50.0%   347  170s
* 3230    79             167       1.0000000    1.00000  0.00%   337  173s

Cutting planes:
  Gomory: 18
  Cover: 165
  Clique: 192
  MIR: 20
  StrongCG: 39
  Flow cover: 106
  Zero half: 24
  RLT: 3

Explored 3231 nodes (1668636 simplex iterations) in 173.17 seconds
Thread count was 1 (of 80 available processors)

Solution count 5: 1 2 3 ... 6

Optimal solution found (tolerance 1.00e-04)
Warning: max constraint violation (2.6408e-06) exceeds tolerance
Best objective 1.000000000000e+00, best bound 1.000000000000e+00, gap 0.0000%
